NAME: instance_2443
TYPE: TSP
DIMENSION: 20
EDGE_WEIGHT_TYPE: EUC_2D
NODE_COORD_SECTION
0 19.52 50.18
1 31.33 67.78
2 18.08 12.06
3 5.89 79.79
4 47.67 29.28
5 92.99 70.74
6 11.53 45.63
7 6.37 81.49
8 93.59 34.03
9 81.78 69.87
10 10.49 65.90
11 45.19 39.10
12 55.23 84.28
13 82.77 49.75
14 5.24 51.50
15 87.30 37.31
16 76.90 9.44
17 42.35 82.49
18 89.20 22.54
19 30.68 48.97
EOF
